led_fsm_unrolled.smt2
; SMT-LIBv2 description generated by Yosys 0.56+101 (git sha1 dbb977aa8, aarch64-apple-darwin23.5-clang++ 18.1.8 -fPIC -O3)
; yosys-smt2-stdt
; yosys-smt2-module led_fsm
(declare-datatype |led_fsm_s| ((|led_fsm_mk|
  (|led_fsm_is| Bool)
  (|LEDs| (_ BitVec 5)) ; \LEDs
  (|clock| Bool) ; \clock
  (|led0| (_ BitVec 1)) ; \led0
  (|on| (_ BitVec 1)) ; \on
  (|reset| Bool) ; \reset
  (|state| (_ BitVec 3)) ; \state
  (|up| (_ BitVec 1)) ; \up
)))
; yosys-smt2-witness {"offset": 0, "path": ["\\LEDs"], "smtname": 0, "smtoffset": 0, "type": "reg", "width": 5}
; yosys-smt2-output LEDs 5
; yosys-smt2-register LEDs 5
; yosys-smt2-wire LEDs 5
(define-fun |led_fsm_n LEDs| ((state |led_fsm_s|)) (_ BitVec 5) (|LEDs| state))
; yosys-smt2-input clock 1
; yosys-smt2-wire clock 1
; yosys-smt2-clock clock posedge
; yosys-smt2-witness {"offset": 0, "path": ["\\clock"], "smtname": "clock", "smtoffset": 0, "type": "posedge", "width": 1}
; yosys-smt2-witness {"offset": 0, "path": ["\\clock"], "smtname": "clock", "smtoffset": 0, "type": "input", "width": 1}
(define-fun |led_fsm_n clock| ((state |led_fsm_s|)) Bool (|clock| state))
; yosys-smt2-witness {"offset": 0, "path": ["\\led0"], "smtname": 2, "smtoffset": 0, "type": "reg", "width": 1}
; yosys-smt2-output led0 1
; yosys-smt2-register led0 1
; yosys-smt2-wire led0 1
(define-fun |led_fsm_n led0| ((state |led_fsm_s|)) Bool (= ((_ extract 0 0) (|led0| state)) #b1))
; yosys-smt2-witness {"offset": 0, "path": ["\\on"], "smtname": 3, "smtoffset": 0, "type": "reg", "width": 1}
; yosys-smt2-register on 1
; yosys-smt2-wire on 1
(define-fun |led_fsm_n on| ((state |led_fsm_s|)) Bool (= ((_ extract 0 0) (|on| state)) #b1))
; yosys-smt2-input reset 1
; yosys-smt2-wire reset 1
; yosys-smt2-witness {"offset": 0, "path": ["\\reset"], "smtname": "reset", "smtoffset": 0, "type": "input", "width": 1}
(define-fun |led_fsm_n reset| ((state |led_fsm_s|)) Bool (|reset| state))
; yosys-smt2-witness {"offset": 0, "path": ["\\state"], "smtname": 5, "smtoffset": 0, "type": "reg", "width": 3}
; yosys-smt2-register state 3
; yosys-smt2-wire state 3
(define-fun |led_fsm_n state| ((state |led_fsm_s|)) (_ BitVec 3) (|state| state))
; yosys-smt2-witness {"offset": 0, "path": ["\\up"], "smtname": 6, "smtoffset": 0, "type": "reg", "width": 1}
; yosys-smt2-register up 1
; yosys-smt2-wire up 1
(define-fun |led_fsm_n up| ((state |led_fsm_s|)) Bool (= ((_ extract 0 0) (|up| state)) #b1))
(define-fun |led_fsm#7| ((state |led_fsm_s|)) (_ BitVec 1) (ite (= ((_ extract 0 0) (|up| state)) #b1) #b1 #b0)) ; $procmux$95_Y
(define-fun |led_fsm#8| ((state |led_fsm_s|)) (_ BitVec 1) (ite (= ((_ extract 0 0) (|up| state)) #b1) #b1 #b0)) ; $procmux$103_Y
(define-fun |led_fsm#9| ((state |led_fsm_s|)) Bool (= (|state| state) #b101)) ; $procmux$98_CMP
(define-fun |led_fsm#10| ((state |led_fsm_s|)) Bool (= (|state| state) #b100)) ; $procmux$101_CMP
(define-fun |led_fsm#11| ((state |led_fsm_s|)) Bool (= (|state| state) #b011)) ; $procmux$105_CMP
(define-fun |led_fsm#12| ((state |led_fsm_s|)) (_ BitVec 1) (ite (|led_fsm#11| state) (|led_fsm#8| state) (ite (|led_fsm#10| state) #b0 (ite (|led_fsm#9| state) (|led_fsm#7| state) #b1)))) ; $procmux$97_Y
(define-fun |led_fsm#13| ((state |led_fsm_s|)) (_ BitVec 1) (ite (= ((_ extract 0 0) (|on| state)) #b1) (|up| state) (|led_fsm#12| state))) ; $procmux$109_Y
(define-fun |led_fsm#14| ((state |led_fsm_s|)) (_ BitVec 1) (ite (|reset| state) #b0 (|led_fsm#13| state))) ; $0\up[0:0]
(define-fun |led_fsm#15| ((state |led_fsm_s|)) (_ BitVec 3) (ite (= ((_ extract 0 0) (|up| state)) #b1) #b010 #b000)) ; $procmux$65_Y
(define-fun |led_fsm#16| ((state |led_fsm_s|)) (_ BitVec 3) (ite (= ((_ extract 0 0) (|up| state)) #b1) #b000 #b100)) ; $procmux$69_Y
(define-fun |led_fsm#17| ((state |led_fsm_s|)) (_ BitVec 3) (ite (= ((_ extract 0 0) (|up| state)) #b1) #b101 #b011)) ; $procmux$74_Y
(define-fun |led_fsm#18| ((state |led_fsm_s|)) (_ BitVec 3) (ite (= ((_ extract 0 0) (|up| state)) #b1) #b100 #b010)) ; $procmux$78_Y
(define-fun |led_fsm#19| ((state |led_fsm_s|)) (_ BitVec 3) (ite (= ((_ extract 0 0) (|up| state)) #b1) #b011 #b001)) ; $procmux$82_Y
(define-fun |led_fsm#20| ((state |led_fsm_s|)) Bool (= (|state| state) #b101)) ; $procmux$72_CMP
(define-fun |led_fsm#21| ((state |led_fsm_s|)) Bool (= (|state| state) #b100)) ; $procmux$76_CMP
(define-fun |led_fsm#22| ((state |led_fsm_s|)) Bool (= (|state| state) #b011)) ; $procmux$80_CMP
(define-fun |led_fsm#23| ((state |led_fsm_s|)) Bool (= (|state| state) #b010)) ; $procmux$84_CMP
(define-fun |led_fsm#24| ((state |led_fsm_s|)) (_ BitVec 3) (ite (|led_fsm#23| state) (|led_fsm#19| state) (ite (|led_fsm#22| state) (|led_fsm#18| state) (ite (|led_fsm#21| state) (|led_fsm#17| state) (ite (|led_fsm#20| state) (|led_fsm#16| state) (|led_fsm#15| state)))))) ; $procmux$71_Y
(define-fun |led_fsm#25| ((state |led_fsm_s|)) (_ BitVec 3) (ite (= ((_ extract 0 0) (|on| state)) #b1) (|state| state) (|led_fsm#24| state))) ; $procmux$86_Y
(define-fun |led_fsm#26| ((state |led_fsm_s|)) (_ BitVec 3) (ite (|reset| state) #b010 (|led_fsm#25| state))) ; $0\state[2:0]
(define-fun |led_fsm#27| ((state |led_fsm_s|)) (_ BitVec 1) (ite (= ((_ extract 0 0) (|on| state)) #b1) #b0 #b1)) ; $procmux$8_Y
(define-fun |led_fsm#28| ((state |led_fsm_s|)) (_ BitVec 1) (ite (|reset| state) #b1 (|led_fsm#27| state))) ; $0\on[0:0]
(define-fun |led_fsm#29| ((state |led_fsm_s|)) (_ BitVec 1) (ite (= ((_ extract 0 0) (|up| state)) #b1) #b1 #b0)) ; $procmux$14_Y
(define-fun |led_fsm#30| ((state |led_fsm_s|)) (_ BitVec 1) (ite (= ((_ extract 0 0) (|up| state)) #b1) #b0 #b1)) ; $procmux$18_Y
(define-fun |led_fsm#31| ((state |led_fsm_s|)) Bool (= (|state| state) #b101)) ; $procmux$21_CMP
(define-fun |led_fsm#32| ((state |led_fsm_s|)) Bool (= (|state| state) #b100)) ; $procmux$24_CMP
(define-fun |led_fsm#33| ((state |led_fsm_s|)) Bool (= (|state| state) #b011)) ; $procmux$27_CMP
(define-fun |led_fsm#34| ((state |led_fsm_s|)) Bool (= (|state| state) #b010)) ; $procmux$30_CMP
(define-fun |led_fsm#35| ((state |led_fsm_s|)) (_ BitVec 1) (ite (|led_fsm#34| state) #b1 (ite (|led_fsm#33| state) #b1 (ite (|led_fsm#32| state) #b1 (ite (|led_fsm#31| state) (|led_fsm#30| state) (|led_fsm#29| state)))))) ; $procmux$20_Y
(define-fun |led_fsm#36| ((state |led_fsm_s|)) (_ BitVec 1) (ite (= ((_ extract 0 0) (|on| state)) #b1) #b0 (|led_fsm#35| state))) ; $procmux$32_Y
(define-fun |led_fsm#37| ((state |led_fsm_s|)) (_ BitVec 1) (ite (|reset| state) #b1 (|led_fsm#36| state))) ; $0\led0[0:0]
(define-fun |led_fsm#38| ((state |led_fsm_s|)) (_ BitVec 5) (ite (= ((_ extract 0 0) (|up| state)) #b1) #b00011 #b00000)) ; $procmux$38_Y
(define-fun |led_fsm#39| ((state |led_fsm_s|)) (_ BitVec 5) (ite (= ((_ extract 0 0) (|up| state)) #b1) #b00000 #b01111)) ; $procmux$42_Y
(define-fun |led_fsm#40| ((state |led_fsm_s|)) (_ BitVec 5) (ite (= ((_ extract 0 0) (|up| state)) #b1) #b11111 #b00111)) ; $procmux$47_Y
(define-fun |led_fsm#41| ((state |led_fsm_s|)) (_ BitVec 5) (ite (= ((_ extract 0 0) (|up| state)) #b1) #b01111 #b00011)) ; $procmux$51_Y
(define-fun |led_fsm#42| ((state |led_fsm_s|)) (_ BitVec 5) (ite (= ((_ extract 0 0) (|up| state)) #b1) #b00111 #b00001)) ; $procmux$55_Y
(define-fun |led_fsm#43| ((state |led_fsm_s|)) Bool (= (|state| state) #b101)) ; $procmux$45_CMP
(define-fun |led_fsm#44| ((state |led_fsm_s|)) Bool (= (|state| state) #b100)) ; $procmux$49_CMP
(define-fun |led_fsm#45| ((state |led_fsm_s|)) Bool (= (|state| state) #b011)) ; $procmux$53_CMP
(define-fun |led_fsm#46| ((state |led_fsm_s|)) Bool (= (|state| state) #b010)) ; $procmux$57_CMP
(define-fun |led_fsm#47| ((state |led_fsm_s|)) (_ BitVec 5) (ite (|led_fsm#46| state) (|led_fsm#42| state) (ite (|led_fsm#45| state) (|led_fsm#41| state) (ite (|led_fsm#44| state) (|led_fsm#40| state) (ite (|led_fsm#43| state) (|led_fsm#39| state) (|led_fsm#38| state)))))) ; $procmux$44_Y
(define-fun |led_fsm#48| ((state |led_fsm_s|)) (_ BitVec 5) (ite (= ((_ extract 0 0) (|on| state)) #b1) #b00000 (|led_fsm#47| state))) ; $procmux$59_Y
(define-fun |led_fsm#49| ((state |led_fsm_s|)) (_ BitVec 5) (ite (|reset| state) #b10101 (|led_fsm#48| state))) ; $0\LEDs[4:0]
(define-fun |led_fsm_a| ((state |led_fsm_s|)) Bool true)
(define-fun |led_fsm_u| ((state |led_fsm_s|)) Bool true)
(define-fun |led_fsm_i| ((state |led_fsm_s|)) Bool (and
  (= (|LEDs| state) #b10101) ; LEDs
  (= (= ((_ extract 0 0) (|led0| state)) #b1) true) ; led0
  (= (= ((_ extract 0 0) (|on| state)) #b1) true) ; on
  (= (|state| state) #b010) ; state
  (= (= ((_ extract 0 0) (|up| state)) #b1) false) ; up
))
(define-fun |led_fsm_h| ((state |led_fsm_s|)) Bool true)
(define-fun |led_fsm_t| ((state |led_fsm_s|) (next_state |led_fsm_s|)) Bool (and
  (= (|led_fsm#14| state) (|up| next_state)) ; $procdff$116 \up
  (= (|led_fsm#26| state) (|state| next_state)) ; $procdff$118 \state
  (= (|led_fsm#28| state) (|on| next_state)) ; $procdff$117 \on
  (= (|led_fsm#37| state) (|led0| next_state)) ; $procdff$115 \led0
  (= (|led_fsm#49| state) (|LEDs| next_state)) ; $procdff$114 \LEDs
)) ; end of module led_fsm
; yosys-smt2-topmod led_fsm
; end of yosys output

; Unrolled states
(declare-const |s_q_0| |led_fsm_s|)
(declare-const |s_q_1| |led_fsm_s|)
(declare-const |s_q_2| |led_fsm_s|)
(declare-const |s_q_3| |led_fsm_s|)

; Initial and Next-state constraints
(assert (and (|led_fsm_i| |s_q_0|) (|led_fsm_t| s_q_0 s_q_1) (|led_fsm_t| s_q_1 s_q_2) (|led_fsm_t| s_q_2 s_q_3) ))
; End of unrolling constraints


Error: (error "line 41 column 80: select requires 1 arguments, but was provided with 2 arguments")
(error "line 48 column 69: select requires 1 arguments, but was provided with 2 arguments")
(error "line 49 column 70: select requires 1 arguments, but was provided with 2 arguments")
(error "line 50 column 70: select requires 1 arguments, but was provided with 2 arguments")
(error "line 51 column 85: unknown function/constant led_fsm#11")
(error "line 52 column 137: unknown function/constant led_fsm#12")
(error "line 53 column 105: unknown function/constant led_fsm#13")
(error "line 59 column 70: select requires 1 arguments, but was provided with 2 arguments")
(error "line 60 column 70: select requires 1 arguments, but was provided with 2 arguments")
(error "line 61 column 70: select requires 1 arguments, but was provided with 2 arguments")
(error "line 62 column 70: select requires 1 arguments, but was provided with 2 arguments")
(error "line 63 column 85: unknown function/constant led_fsm#23")
(error "line 64 column 119: select requires 1 arguments, but was provided with 2 arguments")
(error "line 65 column 107: unknown function/constant led_fsm#25")
(error "line 70 column 70: select requires 1 arguments, but was provided with 2 arguments")
(error "line 71 column 70: select requires 1 arguments, but was provided with 2 arguments")
(error "line 72 column 70: select requires 1 arguments, but was provided with 2 arguments")
(error "line 73 column 70: select requires 1 arguments, but was provided with 2 arguments")
(error "line 74 column 85: unknown function/constant led_fsm#34")
(error "line 75 column 128: unknown function/constant led_fsm#35")
(error "line 76 column 105: unknown function/constant led_fsm#36")
(error "line 82 column 70: select requires 1 arguments, but was provided with 2 arguments")
(error "line 83 column 70: select requires 1 arguments, but was provided with 2 arguments")
(error "line 84 column 70: select requires 1 arguments, but was provided with 2 arguments")
(error "line 85 column 70: select requires 1 arguments, but was provided with 2 arguments")
(error "line 86 column 85: unknown function/constant led_fsm#46")
(error "line 87 column 132: unknown function/constant led_fsm#47")
(error "line 88 column 109: unknown function/constant led_fsm#48")
(error "line 95 column 20: select requires 1 arguments, but was provided with 2 arguments")
(error "line 100 column 24: unknown function/constant led_fsm#14")
(error "line 116 column 34: unknown function/constant led_fsm_i")
sat
